33D32945 STP File, STP Format Version 1.0

SECTION Comments
Name "shell_n15_d2_s25"
Problem "Euclidean Steiner Tree Problem"
Remark "Generated with STPGenerator. 2 dimensions."
END

SECTION Graph
Nodes 15
END

SECTION Coordinates
DD 0 -0.9791905065 0.2029432237
DD 1 0.9993019370 0.0373582481
DD 2 0.9988098695 -0.0487734011
DD 3 0.9885470413 0.1509130452
DD 4 0.3685290628 0.9296162272
DD 5 0.4603055834 0.8877605363
DD 6 0.6262858134 -0.7795935350
DD 7 -0.8170225772 0.5766056784
DD 8 -0.9352624817 -0.3539549271
DD 9 0.6990876296 -0.7150360034
DD 10 -0.8180614394 0.5751308384
DD 11 -0.9651772688 -0.2615967123
DD 12 0.6912824201 0.7225846772
DD 13 -0.9176004870 0.3975038947
DD 14 0.4727841120 0.8811782926
END
